29421 57408
62086 19976
21890 2096
19437 33398
2187 38327
14812 41376
34004 8571
11732 52070
54998 13108
11382 34844
45366 52248
32281 26701
13877 48586
46886 16996
22876 53003
34402 42334
47760 40757
60913 28097
12695 25037
50558 65231
37493 53560
39300 39926
35729 113
60286 34234
29091 40281
22094 7357
